5343105786986203505012,7,1,2,04,5,1,2,011,2,1,2,03,13,1,2,014,15,1,2,01,4,1,2,015,15,1,2,013,12,1,2,05,3,1,2,06,10,1,2,05,4,1,2,011,7,1,2,013,8,1,2,010,11,1,2,08,6,1,2,07,15,1,2,010,6,1,2,015,12,1,2,03,9,1,2,09,5,1,2,04,14,1,2,011,2,1,2,012,8,1,2,013,3,1,2,09,10,1,2,014,10,1,2,05,10,1,2,08,13,1,2,03,15,1,2,01,4,1,2,01,14,1,2,011,11,1,2,04,9,1,2,02,13,1,2,09,13,1,2,07,5,1,2,014,9,1,2,01,11,1,2,014,1,1,2,05,1,1,2,03,4,1,2,014,10,1,2,01,8,1,2,07,1,1,2,06,9,1,2,014,4,1,2,06,15,1,2,02,4,1,2,03,15,1,2,014,8,1,2,0